101 661
1 70 30 51 9 81 33 50 76 77 3 79 78 34 35 65 71 66 20 32 63 90 10 62 31 88 7 82 48 47 19 11 64 49 36 46 8 45 17 84 5 60 83 18 52 89 58 40 26 12 68 80 29 24 54 4 55 25 39 67 23 56 75 22 41 74 72 21 73 2 57 15 43 14 44 38 86 16 61 85 91 100 37 98 59 96 99 93 92 42 87 97 95 6 94 13 53 28 101 27 69 
